NumGames = 8;
NumReferees = 28;
NumFields = 4;
game_id = [3356, 3358, 3359, 3360, 3361, 3362, 3364, 3374];
game_start = [900, 780, 600, 705, 600, 1110, 750, 1240];
game_end = [1020, 900, 720, 825, 720, 1230, 870, 1360];
difficulty = [2, 2, 1, 1, 3, 3, 1, 1];
game_field = [1, 2, 3, 3, 2, 1, 3, 4];
referee_id = [1206, 3111, 3133, 3256, 3260, 3262, 3263, 3265, 3267, 3475, 3517, 3524, 3533, 3534, 3539, 3734, 7486, 7490, 7494, 7498, 7503, 7506, 7508, 7523, 7530, 7533, 7538, 7541];
main_exp = [277, 23, 24, 45, 147, 105, 135, 13, 36, 25, 34, 12, 31, 4, 12, 21, 14, 2, 1, 2, 18, 1, 1, 5, 7, 6, 5, 0];
assist_exp = [151, 62, 44, 51, 99, 79, 101, 72, 133, 27, 14, 61, 43, 23, 97, 3, 66, 12, 12, 24, 59, 42, 0, 0, 0, 24, 3, 0];
available_slots = array3d(1..NumReferees, 1..3, 1..2,[
  690,1380, 0,0, 0,0,
  0,1440, 0,0, 0,0,
  0,1440, 0,0, 0,0,
  600,1260, 0,0, 0,0,
  0,1440, 0,0, 0,0,
  0,1440, 0,0, 0,0,
  0,1440, 0,0, 0,0,
  420,780, 0,0, 0,0,
  0,1440, 0,0, 0,0,
  0,1440, 0,0, 0,0,
  780,1380, 0,0, 0,0,
  780,900, 900,1260, 0,0,
  0,1440, 0,0, 0,0,
  600,720, 0,0, 0,0,
  720,1439, 0,0, 0,0,
  900,1260, 0,0, 0,0,
  600,1020, 0,0, 0,0,
  690,1050, 0,0, 0,0,
  0,1440, 0,0, 0,0,
  0,1440, 0,0, 0,0,
  0,1440, 0,0, 0,0,
  0,1440, 0,0, 0,0,
  0,1440, 0,0, 0,0,
  0,1440, 0,0, 0,0,
  0,1440, 0,0, 0,0,
  0,1440, 0,0, 0,0,
  1200,1410, 0,0, 0,0,
  0,1440, 0,0, 0,0,
]);